Test: hole014_shuffled.cnf
Options: 
WARNING: for repeatability, setting FPU to use double precision
============================[ Problem Statistics ]=============================
|                                                                             |
|  Number of symmetries:           27                                         |
|  Number of invertingSyms:         0                                         |
|  Number of variables:           210                                         |
|  Number of clauses:            1485                                         |
|  Parse time:                   0.00 s                                       |
|                                                                             |
============================[ Search Statistics ]==============================
| Conflicts |          ORIGINAL         |          LEARNT          | Progress |
|           |    Vars  Clauses Literals |    Limit  Clauses Lit/Cl |          |
===============================================================================
|       100 |     210     1485     3150 |      544      102     87 |  0.002 % |
|       250 |     210     1485     3150 |      598      297     83 |  0.002 % |
|       475 |     210     1485     3150 |      658      664     65 |  0.002 % |
|       812 |     210     1485     3150 |      724      427     50 |  0.002 % |
|      1318 |     210     1485     3150 |      797      661     51 |  0.002 % |
|      2077 |     210     1485     3150 |      876      571     60 |  0.002 % |
|      3216 |     210     1485     3150 |      964      879     71 |  0.002 % |
|      4924 |     210     1485     3150 |     1061      655     73 |  0.002 % |
|      7486 |     210     1485     3150 |     1167      743     73 |  0.002 % |
|     11330 |     210     1485     3150 |     1283     1102     70 |  0.002 % |
|     17096 |     210     1485     3150 |     1412     1132     67 |  0.002 % |
|     25745 |     210     1485     3150 |     1553     1043     66 |  0.002 % |
|     38719 |     210     1485     3150 |     1708      938     67 |  0.002 % |
|     58180 |     210     1485     3150 |     1879     1629     68 |  0.002 % |
|     87372 |     210     1485     3150 |     2067     1918     60 |  0.002 % |
|    131161 |     210     1485     3150 |     2274     1952     75 |  0.002 % |
|    196845 |     210     1485     3150 |     2501     1919     78 |  0.002 % |
|    295371 |     210     1485     3150 |     2752     1767     75 |  0.002 % |
|    443160 |     210     1485     3150 |     3027     1780     81 |  0.002 % |
===============================================================================
restarts              : 1023
conflicts             : 485162         (27671 /sec)
symconflicts          : 56462          (3220 /sec)
decisions             : 765810         (0.00 % random) (43678 /sec)
propagations          : 9708228        (553709 /sec)
sympropagations       : 325542         (18567 /sec)
conflict literals     : 37301381       (6.29 % deleted)
literals     : 37301381       (6.29 % deleted)

HEURISTIC USAGES
random                : 0           
activity w/ lookahead : 0           
activity no lookahead : 0           
original sp           : 765810      
sym count             : 0           

Memory used           : 8.00 MB
CPU time              : 17.5331 s

UNSATISFIABLE
